s td 48 2 60
b 1 1 31
b 2 2
b 3 3 22
b 4 4 34
b 5 4 43
b 6 5 44
b 7 6 46
b 8 45 46
b 9 46
b 10 7
b 11 8 32
b 12 9 49
b 13 41 42
b 14 10 42
b 15 10 50
b 16 49 50
b 17 50
b 18 11 27
b 19 12
b 20 13
b 21 14 30
b 22 15 54
b 23 16 60
b 24 17
b 25 18 28
b 26 18 56
b 27 19
b 28 20
b 29 21
b 30 23 24
b 31 25
b 32 26
b 33 29
b 34 33
b 35 35
b 36 36
b 37 37
b 38 38
b 39 39
b 40 40
b 41 47 48
b 42 51
b 43 52
b 44 53
b 45 55
b 46 57
b 47 58
b 48 59
1 2
1 3
1 4
1 6
1 7
1 10
1 11
1 12
1 18
1 19
1 20
1 21
1 22
1 23
1 24
1 25
1 27
1 28
1 29
1 30
1 31
1 32
1 33
1 34
1 35
1 36
1 37
1 38
1 39
1 40
1 41
1 42
1 43
1 44
1 45
1 46
1 47
1 48
4 5
7 9
8 9
12 16
13 14
14 15
15 17
16 17
25 26
